% File represents an instance of a Composite Structure problem to be solved by a CP framework
% Created on 2025-03-26 10:41:21.592
T = 50;
n = 16;
m = 24;
edges = [(1, 2),
(5, 6),
(9, 10),
(13, 14),
(2, 3),
(6, 7),
(10, 11),
(15, 14),
(3, 4),
(7, 8),
(11, 12),
(15, 16),
(5, 1),
(9, 5),
(9, 13),
(6, 2),
(10, 6),
(10, 14),
(7, 3),
(11, 7),
(15, 11),
(8, 4),
(12, 8),
(16, 12)];
counts = [|10, 4, 10, 14,
|10, 4, 10, 8,
|10, 4, 10, 2,
|10, 2, 10, 2,
|10, 6, 10, 18,
|10, 4, 10, 14,
|10, 4, 10, 8,
|10, 2, 10, 6,
|12, 8, 12, 18,
|10, 8, 10, 16,
|10, 6, 10, 12,
|10, 4, 10, 10,
|10, 8, 10, 16,
|10, 4, 10, 14,
|10, 6, 10, 16,
|10, 4, 10, 16|];
